NAME: cityu10
COMMENT : 10 locations
COMMENT : Best: 384.43
TYPE: TSP
DIMENSION: 10
EDGE_WEIGHT_TYPE: CITYU
NODE_COORD_SECTION
1 4 4978
2 2 54
3 1 1851
4 1 1640
5 2 53
6 1 1614
7 1 1608
9 1 1852
10 1 1592
